
#(C) 2019 by FIZ Karlsruhe - Leibniz Institute for Information Infrastructure.  All rights reserved.
data_184651-ICSD
_database_code_ICSD 184651
_audit_creation_date 2012-08-01
_chemical_name_systematic 'Manganese titanate'
_chemical_formula_structural 'Mn (Ti O3)'
_chemical_formula_sum 'Mn1 O3 Ti1'
_chemical_name_structure_type Perovskite-GdFeO3
_exptl_crystal_density_diffrn 4.89
_cell_measurement_temperature 0.
_cell_measurement_pressure 0.
_publ_section_title

;
First-principles investigation on high-pressure structural evolution of Mn Ti
O3
;
loop_
_citation_id
_citation_journal_full
_citation_year
_citation_journal_volume
_citation_page_first
_citation_page_last
_citation_journal_id_ASTM
primary 'Solid State Communications' 2012 152 984 988 SSCOA4
loop_
_publ_author_name
'Zhu Feng'
'Wu Xiang'
'Qin Shan'
_cell_length_a 5.135
_cell_length_b 5.3188
_cell_length_c 7.5017
_cell_angle_alpha 90.
_cell_angle_beta 90.
_cell_angle_gamma 90.
_cell_volume 204.89
_cell_formula_units_Z 4
_symmetry_space_group_name_H-M 'P b n m'
_symmetry_Int_Tables_number 62
loop_
_symmetry_equiv_pos_site_id
_symmetry_equiv_pos_as_xyz
1 '-x+1/2, y+1/2, z'
2 'x, y, -z+1/2'
3 'x+1/2, -y+1/2, z+1/2'
4 '-x, -y, -z'
5 'x+1/2, -y+1/2, -z'
6 '-x, -y, z+1/2'
7 '-x+1/2, y+1/2, -z+1/2'
8 'x, y, z'
loop_
_atom_type_symbol
_atom_type_oxidation_number
Mn2+ 2
Ti4+ 4
O2- -2
loop_
_atom_site_label
_atom_site_type_symbol
_atom_site_symmetry_multiplicity
_atom_site_Wyckoff_symbol
_atom_site_fract_x
_atom_site_fract_y
_atom_site_fract_z
_atom_site_B_iso_or_equiv
_atom_site_occupancy
_atom_site_attached_hydrogens
Mn1 Mn2+ 4 c 0.9879 0.051 0.25 . 1. 0
Ti1 Ti4+ 4 b 0.5 0 0 . 1. 0
O1 O2- 4 c 0.1193 0.4504 0.25 . 1. 0
O2 O2- 8 d 0.6903 0.3145 0.0628 . 1. 0
#End of TTdata_184651-ICSD