
#(C) 2019 by FIZ Karlsruhe - Leibniz Institute for Information Infrastructure.  All rights reserved.
data_56694-ICSD
_database_code_ICSD 56694
_audit_creation_date 2003-10-01
_chemical_name_systematic 'Titanium oxide (5/5)'
_chemical_formula_structural 'Ti5 O5'
_chemical_formula_sum 'O5 Ti5'
_exptl_crystal_density_diffrn 4.91
_publ_section_title 'First principle studies of titanium oxide'
loop_
_citation_id
_citation_journal_full
_citation_year
_citation_journal_volume
_citation_page_first
_citation_page_last
_citation_journal_id_ASTM
primary 'Physical Review B: Condensed Matter and Materials Physics' 1996 54 7857
7864 PRBMDO
loop_
_publ_author_name
'Leung, C.-M.'
'Weinert, M.'
'Allen, P.B.'
'Wentzcovitch, R.M.'
_cell_length_a 5.855(3)
_cell_length_b 9.340(5)
_cell_length_c 4.142(2)
_cell_angle_alpha 90.
_cell_angle_beta 90.
_cell_angle_gamma 107.53(5)
_cell_volume 215.99
_cell_formula_units_Z 2
_symmetry_space_group_name_H-M 'A 1 1 2/m'
_symmetry_Int_Tables_number 12
loop_
_symmetry_equiv_pos_site_id
_symmetry_equiv_pos_as_xyz
1 'x, y, -z'
2 '-x, -y, -z'
3 '-x, -y, z'
4 'x, y, z'
5 'x, y+1/2, -z+1/2'
6 '-x, -y+1/2, -z+1/2'
7 '-x, -y+1/2, z+1/2'
8 'x, y+1/2, z+1/2'
loop_
_atom_type_symbol
_atom_type_oxidation_number
Ti0+ 0
O0+ 0
loop_
_atom_site_label
_atom_site_type_symbol
_atom_site_symmetry_multiplicity
_atom_site_Wyckoff_symbol
_atom_site_fract_x
_atom_site_fract_y
_atom_site_fract_z
_atom_site_B_iso_or_equiv
_atom_site_occupancy
_atom_site_attached_hydrogens
Ti1 Ti0+ 2 c 0.5 0 0 . 1. 0
Ti2 Ti0+ 4 i 0.170(5) 0.340(3) 0 . 1. 0
Ti3 Ti0+ 4 i 0.669(5) 0.342(2) 0 . 1. 0
O1 O0+ 4 i 0.343(16) 0.175(9) 0 . 1. 0
O2 O0+ 4 i 0.833(16) 0.179(10) 0 . 1. 0
O3 O0+ 2 b 0 0.5 0 . 1. 0
#End of TTdata_56694-ICSD