
#(C) 2019 by FIZ Karlsruhe - Leibniz Institute for Information Infrastructure, and the U.S. Secretary of
#Commerce on behalf of the United States.  All rights reserved.
data_675187-ICSD
_database_code_ICSD 675187
_audit_creation_date 2019-02-01
_chemical_name_systematic Titanium
_chemical_formula_structural Ti
_chemical_formula_sum Ti1
_chemical_name_structure_type hcp-Mg
_exptl_crystal_density_diffrn 4.53
_publ_section_title

;
First-principles study of phase stability and elastic properties of binary
Ti-xTM (TM = V,Cr,Nb,Mo) and ternary Ti-15TM-yAl alloys
;
loop_
_citation_id
_citation_journal_full
_citation_year
_citation_journal_volume
_citation_page_first
_citation_page_last
_citation_journal_id_ASTM
primary 'Materials & Design' 2016 110 80 89 MADSD2
loop_
_publ_author_name
'Zhang, Shang-Zhou'
'Cui, Hao'
'Li, Ming-Man'
'Yu, Hui'
'Vitos, Levente'
'Yang, Rui'
'Hu, Qing-Miao'
_cell_length_a 2.932
_cell_length_b 2.932
_cell_length_c 4.71759
_cell_angle_alpha 90
_cell_angle_beta 90
_cell_angle_gamma 120
_cell_volume 35.12
_cell_formula_units_Z 2
_symmetry_space_group_name_H-M 'P 63/m m c'
_symmetry_Int_Tables_number 194
loop_
_symmetry_equiv_pos_site_id
_symmetry_equiv_pos_as_xyz
1 'x, x-y, -z+1/2'
2 '-x+y, y, -z+1/2'
3 '-y, -x, -z+1/2'
4 '-x+y, -x, -z+1/2'
5 '-y, x-y, -z+1/2'
6 'x, y, -z+1/2'
7 '-x, -x+y, z+1/2'
8 'x-y, -y, z+1/2'
9 'y, x, z+1/2'
10 'x-y, x, z+1/2'
11 'y, -x+y, z+1/2'
12 '-x, -y, z+1/2'
13 '-x, -x+y, -z'
14 'x-y, -y, -z'
15 'y, x, -z'
16 'x-y, x, -z'
17 'y, -x+y, -z'
18 '-x, -y, -z'
19 'x, x-y, z'
20 '-x+y, y, z'
21 '-y, -x, z'
22 '-x+y, -x, z'
23 '-y, x-y, z'
24 'x, y, z'
loop_
_atom_type_symbol
_atom_type_oxidation_number
Ti0+ 0
loop_
_atom_site_label
_atom_site_type_symbol
_atom_site_symmetry_multiplicity
_atom_site_Wyckoff_symbol
_atom_site_fract_x
_atom_site_fract_y
_atom_site_fract_z
_atom_site_B_iso_or_equiv
_atom_site_occupancy
_atom_site_attached_hydrogens
Ti1 Ti0+ 2 d 0.666667 0.333333 0.25 1. 1. 0
#End of TTdata_675187-ICSD