
#(C) 2019 by FIZ Karlsruhe - Leibniz Institute for Information Infrastructure.  All rights reserved.
data_426961-ICSD
_database_code_ICSD 426961
_audit_creation_date 2014-02-01
_chemical_name_systematic Oxygen
_chemical_formula_structural O
_chemical_formula_sum O1
_exptl_crystal_density_diffrn 1.39
_cell_measurement_temperature 0.
_publ_section_title

;
Error estimates for solid-state density-functional theory predictions: an
overview by means of the ground-state elemental crystals
;
loop_
_citation_id
_citation_journal_full
_citation_year
_citation_journal_volume
_citation_page_first
_citation_page_last
_citation_journal_id_ASTM
primary 'Critical Reviews in Solid State and Materials Sciences' 2014 39 1 24
CCRSDA
loop_
_publ_author_name
'Kurt Lejaeghere'
'Veronique Van Speybroeck'
'Guido Van Oost'
'Stefaan Cottenier'
_cell_length_a 4.27163
_cell_length_b 4.86933
_cell_length_c 4.27682
_cell_angle_alpha 90
_cell_angle_beta 90
_cell_angle_gamma 120.41247
_cell_volume 76.72
_cell_formula_units_Z 4
_symmetry_space_group_name_H-M 'B 1 1 2/m'
_symmetry_Int_Tables_number 12
loop_
_symmetry_equiv_pos_site_id
_symmetry_equiv_pos_as_xyz
1 '-x, -y, z'
2 '-x, -y, -z'
3 'x, y, -z'
4 'x, y, z'
5 '-x+1/2, -y, z+1/2'
6 '-x+1/2, -y, -z+1/2'
7 'x+1/2, y, -z+1/2'
8 'x+1/2, y, z+1/2'
loop_
_atom_type_symbol
_atom_type_oxidation_number
O0+ 0
loop_
_atom_site_label
_atom_site_type_symbol
_atom_site_symmetry_multiplicity
_atom_site_Wyckoff_symbol
_atom_site_fract_x
_atom_site_fract_y
_atom_site_fract_z
_atom_site_B_iso_or_equiv
_atom_site_occupancy
_atom_site_attached_hydrogens
O1 O0+ 4 i 0.915504 0.853327 0. 1. 1. 0
#End of TTdata_426961-ICSD